% Auto-generated by scripts/generate_dzn.py
% problem_type   = regex
% instance       = regex_97
% source_json    = instances_json/2_high_blowup/regex_97.json
% blowup         = 18.466666666666665
% representation = DFA

mode = 0;

var_count = 17;
Q = 277;
S = 2;
q0 = 1;
F = {190, 191, 192, 193, 194, 195, 196, 197, 198, 199, 200, 201, 202, 203, 204, 205, 206, 207, 208, 209, 210, 211, 212, 213, 214, 215, 216, 217, 218, 219, 220, 221, 222, 223, 224, 225, 226, 227, 228, 229, 230, 231, 232, 233, 234, 235, 236, 237, 238, 239, 240, 241, 242, 243, 244, 245, 246, 247, 248, 249, 250, 251, 252, 253, 254, 255, 256, 257, 258, 259, 260, 261, 262, 263, 264, 265, 266, 267, 268, 269, 270, 271, 272, 273, 274, 275, 276, 277};
d_dfa = array2d(1..277, 1..2, [
  2, 1,
  2, 3,
  2, 4,
  6, 5,
  8, 7,
  8, 9,
  11, 10,
  11, 12,
  11, 13,
  15, 14,
  15, 16,
  15, 17,
  19, 18,
  21, 20,
  21, 22,
  21, 23,
  25, 24,
  27, 26,
  27, 28,
  30, 29,
  30, 31,
  30, 32,
  34, 33,
  36, 35,
  36, 37,
  39, 38,
  39, 40,
  39, 41,
  43, 42,
  43, 44,
  43, 45,
  47, 46,
  49, 48,
  49, 50,
  52, 51,
  52, 53,
  52, 54,
  56, 55,
  56, 57,
  56, 58,
  60, 59,
  62, 61,
  62, 63,
  62, 64,
  66, 65,
  68, 67,
  68, 69,
  71, 70,
  71, 72,
  71, 73,
  75, 74,
  75, 76,
  75, 77,
  79, 78,
  81, 80,
  81, 82,
  81, 83,
  85, 84,
  87, 86,
  87, 88,
  90, 89,
  90, 91,
  90, 92,
  94, 93,
  96, 95,
  96, 97,
  99, 98,
  99, 100,
  99, 101,
  103, 102,
  103, 104,
  103, 105,
  107, 106,
  109, 108,
  109, 110,
  109, 111,
  113, 112,
  115, 114,
  115, 116,
  118, 117,
  118, 119,
  118, 120,
  122, 121,
  124, 123,
  124, 125,
  127, 126,
  127, 128,
  127, 129,
  131, 130,
  131, 132,
  131, 133,
  135, 134,
  137, 136,
  137, 138,
  140, 139,
  140, 141,
  140, 142,
  144, 143,
  144, 145,
  144, 146,
  148, 147,
  150, 149,
  150, 151,
  150, 152,
  154, 153,
  156, 155,
  156, 157,
  159, 158,
  159, 160,
  159, 161,
  163, 162,
  165, 164,
  165, 166,
  168, 167,
  168, 169,
  168, 170,
  172, 171,
  172, 173,
  172, 174,
  176, 175,
  178, 177,
  178, 179,
  181, 180,
  181, 182,
  181, 183,
  185, 184,
  185, 186,
  185, 187,
  189, 188,
  191, 190,
  191, 192,
  191, 193,
  195, 194,
  197, 196,
  197, 198,
  200, 199,
  200, 201,
  200, 202,
  204, 203,
  204, 205,
  204, 206,
  208, 207,
  210, 209,
  210, 211,
  210, 212,
  214, 213,
  216, 215,
  216, 217,
  219, 218,
  219, 220,
  219, 221,
  223, 222,
  225, 224,
  225, 226,
  228, 227,
  228, 229,
  228, 230,
  232, 231,
  232, 233,
  232, 234,
  236, 235,
  238, 237,
  238, 239,
  241, 240,
  241, 242,
  241, 243,
  245, 244,
  245, 246,
  245, 247,
  249, 248,
  251, 250,
  251, 252,
  251, 253,
  255, 254,
  257, 256,
  257, 258,
  260, 259,
  260, 261,
  260, 262,
  264, 263,
  264, 265,
  264, 266,
  268, 267,
  270, 269,
  270, 271,
  270, 272,
  274, 273,
  276, 275,
  276, 277,
  2, 1,
  2, 3,
  2, 4,
  6, 5,
  8, 7,
  8, 9,
  11, 10,
  11, 12,
  11, 13,
  15, 14,
  15, 16,
  15, 17,
  19, 18,
  21, 20,
  21, 22,
  21, 23,
  25, 24,
  27, 26,
  27, 28,
  30, 29,
  30, 31,
  30, 32,
  34, 33,
  36, 35,
  36, 37,
  39, 38,
  39, 40,
  39, 41,
  43, 42,
  43, 44,
  43, 45,
  47, 46,
  49, 48,
  49, 50,
  52, 51,
  52, 53,
  52, 54,
  56, 55,
  56, 57,
  56, 58,
  60, 59,
  62, 61,
  62, 63,
  62, 64,
  66, 65,
  68, 67,
  68, 69,
  71, 70,
  71, 72,
  71, 73,
  75, 74,
  75, 76,
  75, 77,
  79, 78,
  81, 80,
  81, 82,
  81, 83,
  85, 84,
  87, 86,
  87, 88,
  90, 89,
  90, 91,
  90, 92,
  94, 93,
  96, 95,
  96, 97,
  99, 98,
  99, 100,
  99, 101,
  103, 102,
  103, 104,
  103, 105,
  107, 106,
  109, 108,
  109, 110,
  109, 111,
  113, 112,
  115, 114,
  115, 116,
  118, 117,
  118, 119,
  118, 120,
  122, 121,
  124, 123,
  124, 125,
  127, 126,
  127, 128,
  127, 129
]);
d_nfa = array2d(1..277, 1..2, [
  {}, {},
  {}, {},
  {}, {},
  {}, {},
  {}, {},
  {}, {},
  {}, {},
  {}, {},
  {}, {},
  {}, {},
  {}, {},
  {}, {},
  {}, {},
  {}, {},
  {}, {},
  {}, {},
  {}, {},
  {}, {},
  {}, {},
  {}, {},
  {}, {},
  {}, {},
  {}, {},
  {}, {},
  {}, {},
  {}, {},
  {}, {},
  {}, {},
  {}, {},
  {}, {},
  {}, {},
  {}, {},
  {}, {},
  {}, {},
  {}, {},
  {}, {},
  {}, {},
  {}, {},
  {}, {},
  {}, {},
  {}, {},
  {}, {},
  {}, {},
  {}, {},
  {}, {},
  {}, {},
  {}, {},
  {}, {},
  {}, {},
  {}, {},
  {}, {},
  {}, {},
  {}, {},
  {}, {},
  {}, {},
  {}, {},
  {}, {},
  {}, {},
  {}, {},
  {}, {},
  {}, {},
  {}, {},
  {}, {},
  {}, {},
  {}, {},
  {}, {},
  {}, {},
  {}, {},
  {}, {},
  {}, {},
  {}, {},
  {}, {},
  {}, {},
  {}, {},
  {}, {},
  {}, {},
  {}, {},
  {}, {},
  {}, {},
  {}, {},
  {}, {},
  {}, {},
  {}, {},
  {}, {},
  {}, {},
  {}, {},
  {}, {},
  {}, {},
  {}, {},
  {}, {},
  {}, {},
  {}, {},
  {}, {},
  {}, {},
  {}, {},
  {}, {},
  {}, {},
  {}, {},
  {}, {},
  {}, {},
  {}, {},
  {}, {},
  {}, {},
  {}, {},
  {}, {},
  {}, {},
  {}, {},
  {}, {},
  {}, {},
  {}, {},
  {}, {},
  {}, {},
  {}, {},
  {}, {},
  {}, {},
  {}, {},
  {}, {},
  {}, {},
  {}, {},
  {}, {},
  {}, {},
  {}, {},
  {}, {},
  {}, {},
  {}, {},
  {}, {},
  {}, {},
  {}, {},
  {}, {},
  {}, {},
  {}, {},
  {}, {},
  {}, {},
  {}, {},
  {}, {},
  {}, {},
  {}, {},
  {}, {},
  {}, {},
  {}, {},
  {}, {},
  {}, {},
  {}, {},
  {}, {},
  {}, {},
  {}, {},
  {}, {},
  {}, {},
  {}, {},
  {}, {},
  {}, {},
  {}, {},
  {}, {},
  {}, {},
  {}, {},
  {}, {},
  {}, {},
  {}, {},
  {}, {},
  {}, {},
  {}, {},
  {}, {},
  {}, {},
  {}, {},
  {}, {},
  {}, {},
  {}, {},
  {}, {},
  {}, {},
  {}, {},
  {}, {},
  {}, {},
  {}, {},
  {}, {},
  {}, {},
  {}, {},
  {}, {},
  {}, {},
  {}, {},
  {}, {},
  {}, {},
  {}, {},
  {}, {},
  {}, {},
  {}, {},
  {}, {},
  {}, {},
  {}, {},
  {}, {},
  {}, {},
  {}, {},
  {}, {},
  {}, {},
  {}, {},
  {}, {},
  {}, {},
  {}, {},
  {}, {},
  {}, {},
  {}, {},
  {}, {},
  {}, {},
  {}, {},
  {}, {},
  {}, {},
  {}, {},
  {}, {},
  {}, {},
  {}, {},
  {}, {},
  {}, {},
  {}, {},
  {}, {},
  {}, {},
  {}, {},
  {}, {},
  {}, {},
  {}, {},
  {}, {},
  {}, {},
  {}, {},
  {}, {},
  {}, {},
  {}, {},
  {}, {},
  {}, {},
  {}, {},
  {}, {},
  {}, {},
  {}, {},
  {}, {},
  {}, {},
  {}, {},
  {}, {},
  {}, {},
  {}, {},
  {}, {},
  {}, {},
  {}, {},
  {}, {},
  {}, {},
  {}, {},
  {}, {},
  {}, {},
  {}, {},
  {}, {},
  {}, {},
  {}, {},
  {}, {},
  {}, {},
  {}, {},
  {}, {},
  {}, {},
  {}, {},
  {}, {},
  {}, {},
  {}, {},
  {}, {},
  {}, {},
  {}, {},
  {}, {},
  {}, {},
  {}, {},
  {}, {},
  {}, {},
  {}, {},
  {}, {},
  {}, {},
  {}, {},
  {}, {},
  {}, {},
  {}, {},
  {}, {},
  {}, {},
  {}, {},
  {}, {},
  {}, {}
]);
